 O  C 
 1.0000000000000000
    20.0000000000000000    0.0000000000000000    0.0000000000000000
     0.0000000000000000   20.0000000000000000    0.0000000000000000
     0.0000000000000000    0.0000000000000000   21.1503399999999999
   1   1
Cartesian
 10.0000000000000000 10.0000000000000000 11.1503399999999981
 10.0000000000000000 10.0000000000000000  9.9999999999999982
